Instance: E121-07c.dat
Class:  2
120 --- number of customers (no depot)
23 --- number of vehicles
183 --- number of items
Capacity - height - width of vehicles
   200     40     20
Node - x - y - demand  Readytime Duetime
  0.00   10.00  45.00   0.00 0       690.00
  1.00   25.00   1.00  25.00  64.00   99.00
  2.00   25.00   3.00   7.00  32.00   99.00
  3.00   31.00   5.00  13.00 170.00  196.00
  4.00   32.00   5.00   6.00 398.00  415.00
  5.00   31.00   7.00  14.00 233.00  263.00
  6.00   32.00   9.00   5.00  44.00   99.00
  7.00   34.00   9.00  11.00 506.00  536.00
  8.00   46.00   9.00  19.00 527.00  549.00
  9.00   35.00   7.00   5.00 499.00  516.00
 10.00   34.00   6.00  15.00  13.00   99.00
 11.00   35.00   5.00  15.00 551.00  570.00
 12.00   47.00   6.00  17.00  99.00  126.00
 13.00   40.00   5.00  13.00 561.00  588.00
 14.00   39.00   3.00  12.00 554.00  582.00
 15.00   36.00   3.00  18.00  84.00   99.00
 16.00   73.00   6.00  13.00 516.00  543.00
 17.00   73.00   8.00  18.00 496.00  512.00
 18.00   24.00  36.00  12.00 195.00  211.00
 19.00   76.00   6.00  17.00 177.00  204.00
 20.00   76.00  10.00   4.00 497.00  522.00
 21.00   76.00  13.00   7.00 155.00  179.00
 22.00   78.00   3.00  12.00  94.00  124.00
 23.00   78.00   9.00  13.00  82.00  100.00
 24.00   79.00   3.00   8.00 301.00  325.00
 25.00   79.00   5.00  16.00 454.00  479.00
 26.00   79.00  11.00  15.00 247.00  265.00
 27.00   82.00   3.00   6.00  21.00   99.00
 28.00   82.00   7.00   5.00 521.00  536.00
 29.00   90.00  15.00   9.00 394.00  420.00
 30.00   84.00   3.00  11.00 541.00  570.00
 31.00   84.00   5.00  10.00 176.00  206.00
 32.00   84.00   9.00   3.00 447.00  468.00
 33.00   85.00   1.00   7.00 273.00  293.00
 34.00   87.00   5.00   2.00 142.00  158.00
 35.00   85.00   8.00   4.00  14.00   99.00
 36.00   87.00   7.00   4.00  78.00   99.00
 37.00   86.00  41.00  18.00 236.00  264.00
 38.00   86.00  44.00  14.00  41.00   99.00
 39.00   86.00  46.00  12.00 246.00  263.00
 40.00   85.00  55.00  17.00 474.00  497.00
 41.00   89.00  43.00  20.00 503.00  529.00
 42.00   89.00  46.00  14.00 478.00  508.00
 43.00   89.00  52.00  16.00 351.00  372.00
 44.00   92.00  42.00  10.00 505.00  523.00
 45.00   92.00  52.00   9.00 225.00  254.00
 46.00   94.00  42.00  11.00  79.00  104.00
 47.00   94.00  44.00   7.00 389.00  407.00
 48.00   94.00  48.00  13.00 378.00  395.00
 49.00   96.00  42.00   5.00 298.00  323.00
 50.00   99.00  46.00   4.00 159.00  178.00
 51.00   99.00  50.00  21.00 431.00  460.00
 52.00   83.00  80.00  13.00 402.00  418.00
 53.00   83.00  83.00  11.00 357.00  387.00
 54.00   85.00  81.00  12.00 355.00  375.00
 55.00   85.00  85.00  14.00  24.00   99.00
 56.00   85.00  89.00  10.00 413.00  428.00
 57.00   87.00  80.00   8.00 264.00  282.00
 58.00   87.00  86.00  16.00 557.00  579.00
 59.00   90.00  77.00  19.00 132.00  152.00
 60.00   90.00  88.00   5.00 518.00  545.00
 61.00   93.00  82.00  17.00 209.00  225.00
 62.00   93.00  84.00   7.00 179.00  202.00
 63.00   93.00  89.00  16.00 170.00  195.00
 64.00   94.00  86.00  14.00 394.00  409.00
 65.00   95.00  80.00  17.00 327.00  346.00
 66.00   99.00  89.00  13.00 429.00  457.00
 67.00   37.00  83.00  17.00 393.00  409.00
 68.00   50.00  80.00  13.00 260.00  284.00
 69.00   35.00  85.00  14.00  91.00  112.00
 70.00   35.00  87.00  16.00  54.00   99.00
 71.00   44.00  86.00   7.00 231.00  250.00
 72.00   46.00  89.00  13.00  67.00   99.00
 73.00   46.00  83.00   9.00 423.00  451.00
 74.00   46.00  87.00  11.00 173.00  196.00
 75.00   46.00  89.00  35.00  25.00   99.00
 76.00   48.00  83.00   5.00 249.00  264.00
 77.00   50.00  85.00  28.00 134.00  164.00
 78.00   50.00  88.00   7.00 356.00  381.00
 79.00   54.00  86.00   3.00 282.00  299.00
 80.00   54.00  90.00  10.00  54.00   99.00
 81.00   10.00  35.00   7.00  50.00   99.00
 82.00   10.00  40.00  12.00 498.00  525.00
 83.00   18.00  30.00  11.00 301.00  321.00
 84.00   17.00  35.00  10.00 483.00  502.00
 85.00   16.00  38.00   8.00 346.00  374.00
 86.00   14.00  40.00  11.00  21.00   99.00
 87.00   15.00  42.00  21.00 101.00  128.00
 88.00   11.00  42.00   4.00  15.00   99.00
 89.00   18.00  40.00  15.00  23.00   99.00
 90.00   21.00  39.00  16.00  84.00  102.00
 91.00   20.00  40.00   4.00 530.00  552.00
 92.00   18.00  41.00  16.00 209.00  229.00
 93.00   20.00  44.00   7.00 128.00  155.00
 94.00   22.00  44.00  10.00 320.00  346.00
 95.00   16.00  45.00   9.00 415.00  439.00
 96.00   20.00  45.00  11.00 108.00  136.00
 97.00   25.00  45.00  17.00 317.00  335.00
 98.00   30.00  55.00  12.00 354.00  377.00
 99.00   20.00  50.00  11.00 451.00  471.00
100.00   22.00  51.00   7.00 492.00  518.00
101.00   18.00  49.00   9.00 104.00  124.00
102.00   16.00  48.00  11.00 195.00  210.00
103.00   20.00  55.00  12.00 137.00  157.00
104.00   18.00  53.00   7.00 314.00  341.00
105.00   14.00  50.00   8.00 246.00  267.00
106.00   15.00  51.00   6.00 357.00  382.00
107.00   16.00  54.00   5.00 294.00  322.00
108.00   28.00  33.00  12.00 161.00  188.00
109.00   33.00  38.00  13.00 505.00  533.00
110.00   30.00  50.00   7.00 528.00  544.00
111.00   13.00  40.00   7.00 423.00  451.00
112.00   15.00  36.00   8.00 223.00  238.00
113.00   18.00  31.00  11.00 195.00  220.00
114.00   25.00  37.00  13.00 449.00  471.00
115.00   30.00  46.00  11.00 385.00  408.00
116.00   25.00  52.00  10.00  88.00  106.00
117.00   16.00  33.00   7.00 229.00  246.00
118.00   25.00  35.00   4.00 113.00  128.00
119.00    5.00  40.00  20.00 340.00  367.00
120.00    5.00  50.00  13.00 515.00  534.00
Node - number of items - h - w for each item
    0   0
    1   2   20    6   25    3
    2   1   33    2
    3   1   10    6
    4   1    5   12
    5   2    7   15    4    9
    6   2   23    4   22    3
    7   2    5    8   34    4
    8   1    4   14
    9   1    5   11
   10   1    5    9
   11   1   30    4
   12   2    5   13   17    4
   13   2    7   18   19    8
   14   2   25    4   22    3
   15   1   29    2
   16   2    5   11   20    8
   17   2    6   15    6   14
   18   2    8   12   18    2
   19   2   24    4   19    4
   20   2   17    8   29    2
   21   1   17    2
   22   1   16    5
   23   2    4   16    8   10
   24   2   13    9   23    3
   25   1   17    5
   26   2   16   10    8    9
   27   2   13    9   31    3
   28   2   34    4   25    2
   29   2    5   14    7   10
   30   1   34    2
   31   2    7   17   16    7
   32   2   15    8   18    4
   33   1   31    4
   34   1    7   12
   35   2    6   11   25    2
   36   1   14    6
   37   1   25    4
   38   2    4   12   18    3
   39   2   16    9   34    3
   40   1    8   10
   41   2   13    6   27    4
   42   2    4    9   18    3
   43   2    7   12   26    4
   44   2   15    8   15    8
   45   1   13    8
   46   2   15    5   22    3
   47   2    5   10   29    2
   48   2    8    7   11    6
   49   2   17    5   17    2
   50   1   21    4
   51   2    5   10    9    5
   52   1   10   10
   53   2    4   16   19    5
   54   1   17    7
   55   2   19    8   18    3
   56   1    8   11
   57   2   12    6   17    3
   58   1   32    3
   59   1   13    7
   60   1   14    9
   61   2    5   14   13    4
   62   2   13    9   23    4
   63   1    6   18
   64   2   15    8   23    3
   65   2    8   11    5   11
   66   1   16    8
   67   1   19    6
   68   1    8    8
   69   2    6    8   22    3
   70   1   13    8
   71   1   21    3
   72   1   19    2
   73   2   35    4   25    4
   74   2    5   12   17    7
   75   1   11    4
   76   1    6   16
   77   2    9    7   23    4
   78   2   13    7   36    2
   79   1   32    2
   80   1   26    3
   81   2   15   10   13    8
   82   2    9   10   22    3
   83   1    9    9
   84   1    6    9
   85   1   27    2
   86   2    9    7   18    3
   87   1   17    4
   88   2    7   16    7   12
   89   1   25    3
   90   2    7   18    7   11
   91   1   14    7
   92   1   26    3
   93   1   16    7
   94   1   24    4
   95   1    6    8
   96   1    9    8
   97   1   20    2
   98   1   15    9
   99   2   23    4   17    2
  100   1   16    8
  101   1    5   11
  102   2    7    9   27    4
  103   2   19    8   18    7
  104   2   14   10   18    8
  105   1   14    9
  106   1    5   10
  107   2    7   11   15   10
  108   1    5    8
  109   2    5   12    4   11
  110   2    5   17   17    3
  111   2    6   15   14    9
  112   1    4   18
  113   2   13    6   21    3
  114   2    4    8   18    3
  115   2    7    8   19    4
  116   1    7   16
  117   2    6    9   34    2
  118   2    6   14    5   12
  119   1   16    6
  120   2   35    2   31    2
